26
165.0 350.0 
165.0 350.0 
145.0 330.0 
145.0 330.0 
190.0 400.0 
175.0 330.0 
185.0 290.0 
165.0 350.0 
165.0 350.0 
165.0 350.0 
165.0 350.0 
145.0 330.0 
190.0 400.0 
185.0 290.0 
165.0 350.0 
165.0 350.0 
165.0 350.0 
165.0 350.0 
165.0 350.0 
165.0 350.0 
165.0 350.0 
165.0 350.0 
165.0 350.0 
165.0 350.0 
165.0 350.0 
165.0 350.0 

0 11 6 5 4 1 7 16 9 10 12 20 
0 11 6 5 4 1 7 16 9 10 12 20 
0 6 5 4 7 16 9 10 11 12 20 
0 11 6 5 4 7 16 9 10 12 20 
0 11 6 5 4 1 7 16 9 10 12 13 20 
0 6 5 4 1 7 16 14 10 12 20 
0 6 5 1 7 16 15 8 9 12 20 
0 11 6 5 4 1 7 16 9 10 12 20 
0 11 6 5 4 1 7 16 9 10 12 20 
0 11 6 5 4 1 7 16 9 10 12 20 
0 11 6 5 4 1 7 16 9 10 12 20 
0 11 6 5 4 7 16 9 10 12 20 
0 11 6 5 4 1 7 16 9 10 12 13 20 
0 6 5 1 7 16 15 8 9 12 20 
0 11 6 5 4 1 7 16 9 10 12 20 
0 11 6 5 4 1 7 16 9 10 12 20 
0 11 6 5 4 1 7 16 9 10 12 20 
0 11 6 5 4 1 7 16 9 10 12 20 
0 11 6 5 4 1 7 16 9 10 12 20 
0 11 6 5 4 1 7 16 9 10 12 20 
0 11 6 5 4 1 7 16 9 10 12 20 
0 11 6 5 4 1 7 16 9 10 12 20 
0 11 6 5 4 1 7 16 9 10 12 20 
0 11 6 5 4 1 7 16 9 10 12 20 
0 11 6 5 4 1 7 16 9 10 12 20 
0 11 6 5 4 1 7 16 9 10 12 20 
